letting n =  10
letting blocks =  [[1, 7], [1, 9], [1, 10], [2, 1], [2, 7], [2, 9], [3, 5], [3, 9], [4, 6], [5, 7], [5, 8], [5, 10], [6, 5], [6, 6], [6, 8], [7, 1], [7, 3], [7, 5], [7, 7], [7, 8], [8, 4], [8, 6], [8, 8], [8, 10], [9, 2], [9, 3], [9, 4], [9, 5], [9, 9], [9, 10], [10, 3], [10, 4], [10, 5], [10, 6], [10, 7], [10, 9]]
